============================[ Problem Statistics ]=============================|                                                                             ||  Number of variables:          4242                                         ||  Number of clauses:            9955                                         ||  Parse time:                   0.35 s                                       ||                                                                             |============================[ Search Statistics ]==============================| Conflicts |          ORIGINAL         |          LEARNT          | Progress ||           |    Vars  Clauses Literals |    Limit  Clauses Lit/Cl |          |===============================================================================|       100 |    1591     6160   547961 |     2258      100     53 | 62.501 % |===============================================================================restarts              : 3conflicts             : 201            (377 /sec)decisions             : 471            (0.00 % random) (884 /sec)propagations          : 11658          (21872 /sec)conflict literals     : 14174          (95.15 % deleted)CPU time              : 0.533 sSATISFIABLE